0 0 0 0
0 1 0 0
0 2 0 0
0 3 0 0
0 4 0 1
0 5 0 3
0 6 1 1
0 7 0 1
0 8 0 7
0 9 0 2
0 10 2 8
0 11 0 3
0 12 0 2
0 13 0 3
0 14 0 8
0 15 1 12
0 16 2 2
0 17 0 7
0 18 0 10
0 19 0 10
0 20 0 12
0 21 0 9
0 22 0 4
0 23 0 13
0 24 2 7
0 25 0 13
0 26 2 16
0 27 1 8
0 28 0 15
0 29 2 10
0 30 0 19
0 31 0 23
